============================[ Problem Statistics ]=============================
|                                                                             |
|  Number of variables:           400                                         |
|  Number of clauses:            1800                                         |
|  Parse time:                   0.00 s                                       |
|  Eliminated clauses:           0.00 Mb                                      |
|  Simplification time:          0.00 s                                       |
|                                                                             |
============================[ Search Statistics ]==============================
| Conflicts |          ORIGINAL         |          LEARNT          | Progress |
|           |    Vars  Clauses Literals |    Limit  Clauses Lit/Cl |          |
===============================================================================
|       100 |     390     1781     5361 |      653      100     16 |  0.001 % |
|       250 |     390     1781     5361 |      718      250     16 |  0.001 % |
|       475 |     390     1781     5361 |      790      475     17 |  0.001 % |
|       812 |     390     1781     5361 |      869      409     15 |  0.002 % |
|      1318 |     390     1781     5361 |      956      463     14 |  0.001 % |
|      2077 |     390     1781     5361 |     1051      723     15 |  0.001 % |
|      3216 |     390     1781     5361 |     1156      785     14 |  0.001 % |
|      4924 |     390     1781     5361 |     1272      709     14 |  0.001 % |
|      7486 |     390     1781     5361 |     1399     1307     14 |  0.001 % |
|     11330 |     390     1781     5361 |     1539      826     14 |  0.001 % |
|     17096 |     390     1781     5361 |     1693     1126     14 |  0.001 % |
|     25745 |     390     1781     5361 |     1863     1155     14 |  0.001 % |
|     38719 |     390     1781     5361 |     2049     1821     13 |  0.001 % |
|     58180 |     390     1781     5361 |     2254     1542     15 |  0.001 % |
|     87372 |     390     1781     5361 |     2479     2138     13 |  0.001 % |
|    131161 |     390     1781     5361 |     2727     2011     16 |  0.001 % |
|    196845 |     390     1781     5361 |     3000     1452     13 |  0.001 % |
|    295371 |     390     1781     5361 |     3300     2837     15 |  0.001 % |
|    443160 |     390     1781     5361 |     3630     2271     14 |  0.001 % |
|    664843 |     390     1781     5361 |     3993     2294     14 |  0.001 % |
|    997368 |     390     1781     5361 |     4393     2611     14 |  0.001 % |
|   1496156 |     390     1781     5361 |     4832     3302     15 |  0.001 % |
|   2244338 |     390     1781     5361 |     5315     4414     12 |  0.002 % |
===============================================================================
restarts              : 4350
conflicts             : 2552014        (48983 /sec)
decisions             : 3110877        (0.00 % random) (59710 /sec)
propagations          : 145426024      (2791286 /sec)
conflict literals     : 39410100       (24.78 % deleted)
Memory used           : 5.00 MB
CPU time              : 52.1 s

UNSATISFIABLE